(set-logic QF_LRA)
(declare-fun fluent_counter_t2@1 () Real)
(declare-fun fluent_started_i0_t0@0 () Bool)
(declare-fun fluent_started_i0_t1@0 () Bool)
(declare-fun fluent_started_i0_t2@0 () Bool)
(declare-fun fluent_ready_i0_t0@0 () Bool)
(declare-fun fluent_ready_i0_t1@0 () Bool)
(declare-fun fluent_ready_i0_t2@0 () Bool)
(declare-fun fluent_busy_@0 () Bool)
(declare-fun fluent_treated_i0_t0@0 () Bool)
(declare-fun fluent_treated_i0_t1@0 () Bool)
(declare-fun fluent_treated_i0_t2@0 () Bool)
(declare-fun __z3_2 () Real)
(declare-fun __z3_3 () Real)
(declare-fun fluent_counter_t0@0 () Real)
(declare-fun fluent_counter_t1@0 () Real)
(declare-fun __z3_0 () Real)
(declare-fun __z3_1 () Real)
(declare-fun fluent_counter_t2@0 () Real)
(declare-fun parameter_make_treatment_t@2 () Real)
(declare-fun fluent_treated_i0_t0@2 () Bool)
(declare-fun fluent_treated_i0_t1@2 () Bool)
(declare-fun parameter_make_treatment_i@2 () Real)
(declare-fun fluent_treated_i0_t2@2 () Bool)
(declare-fun dur_make_treatment@1 () Real)
(declare-fun fluent_busy_@2 () Bool)
(declare-fun t@1 () Real)
(declare-fun t@2 () Real)
(declare-fun parameter_make_treatment_next@2 () Real)
(declare-fun parameter_make_treatment_t@1 () Real)
(declare-fun fluent_ready_i0_t0@2 () Bool)
(declare-fun parameter_make_treatment_i@1 () Real)
(declare-fun fluent_ready_i0_t1@2 () Bool)
(declare-fun fluent_ready_i0_t2@2 () Bool)
(declare-fun act_make_treatment@1 () Bool)
(declare-fun dur_make_treatment@2 () Real)
(declare-fun parameter_make_treatment_next@1 () Real)
(declare-fun act_make_treatment@2 () Bool)
(declare-fun fluent_counter_t0@2 () Real)
(declare-fun fluent_counter_t1@2 () Real)
(declare-fun __z3_4 () Real)
(declare-fun fluent_counter_t2@2 () Real)
(declare-fun fluent_ready_i0_t0@1 () Bool)
(declare-fun fluent_ready_i0_t1@1 () Bool)
(declare-fun fluent_started_i0_t0@2 () Bool)
(declare-fun fluent_ready_i0_t2@1 () Bool)
(declare-fun fluent_started_i0_t2@2 () Bool)
(declare-fun fluent_started_i0_t0@1 () Bool)
(declare-fun fluent_started_i0_t1@1 () Bool)
(declare-fun fluent_started_i0_t1@2 () Bool)
(declare-fun fluent_started_i0_t2@1 () Bool)
(declare-fun __z3_5 () Real)
(declare-fun __z3_6 () Real)
(declare-fun fluent_treated_i0_t0@1 () Bool)
(declare-fun fluent_treated_i0_t1@1 () Bool)
(declare-fun fluent_treated_i0_t2@1 () Bool)
(declare-fun fluent_busy_@1 () Bool)
(declare-fun fluent_counter_t0@1 () Real)
(declare-fun __z3_7 () Real)
(declare-fun fluent_counter_t1@1 () Real)
(assert (let ((.def_0 (= __z3_3 __z3_7))) (let ((.def_1 (= parameter_make_treatment_t@2 3.0))) (let ((.def_2 (or .def_1 .def_0))) (let ((.def_3 (= __z3_3 fluent_counter_t2@2))) (let ((.def_4 (not .def_1))) (let ((.def_5 (or .def_4 .def_3))) (let ((.def_6 (= __z3_7 fluent_counter_t0@2))) (let ((.def_7 (= parameter_make_treatment_t@2 2.0))) (let ((.def_8 (or .def_7 .def_6))) (let ((.def_9 (= __z3_7 fluent_counter_t1@2))) (let ((.def_10 (not .def_7))) (let ((.def_11 (or .def_10 .def_9))) (let ((.def_12 (= __z3_2 __z3_6))) (let ((.def_13 (or .def_1 .def_12))) (let ((.def_14 (= __z3_2 fluent_counter_t2@1))) (let ((.def_15 (or .def_4 .def_14))) (let ((.def_16 (= __z3_6 fluent_counter_t0@1))) (let ((.def_17 (or .def_7 .def_16))) (let ((.def_18 (= __z3_6 fluent_counter_t1@1))) (let ((.def_19 (or .def_10 .def_18))) (let ((.def_20 (= __z3_1 __z3_5))) (let ((.def_21 (= parameter_make_treatment_t@1 3.0))) (let ((.def_22 (or .def_21 .def_20))) (let ((.def_23 (= __z3_1 fluent_counter_t2@1))) (let ((.def_24 (not .def_21))) (let ((.def_25 (or .def_24 .def_23))) (let ((.def_26 (= __z3_5 fluent_counter_t0@1))) (let ((.def_27 (= parameter_make_treatment_t@1 2.0))) (let ((.def_28 (or .def_27 .def_26))) (let ((.def_29 (= __z3_5 fluent_counter_t1@1))) (let ((.def_30 (not .def_27))) (let ((.def_31 (or .def_30 .def_29))) (let ((.def_32 (= __z3_0 __z3_4))) (let ((.def_33 (or .def_21 .def_32))) (let ((.def_34 (= __z3_0 fluent_counter_t2@0))) (let ((.def_35 (or .def_24 .def_34))) (let ((.def_36 (= __z3_4 fluent_counter_t0@0))) (let ((.def_37 (or .def_27 .def_36))) (let ((.def_38 (= __z3_4 fluent_counter_t1@0))) (let ((.def_39 (or .def_30 .def_38))) (let ((.def_40 (<= fluent_counter_t1@2 31.0))) (let ((.def_41 (<= 0.0 fluent_counter_t1@2))) (let ((.def_42 (= parameter_make_treatment_next@2 3.0))) (let ((.def_43 (= parameter_make_treatment_next@2 2.0))) (let ((.def_44 (= parameter_make_treatment_next@2 1.0))) (let ((.def_45 (or .def_44 .def_43 .def_42))) (let ((.def_46 (<= 0.0 fluent_counter_t0@2))) (let ((.def_47 (<= fluent_counter_t0@2 31.0))) (let ((.def_48 (= parameter_make_treatment_i@2 0.0))) (let ((.def_49 (= parameter_make_treatment_t@2 1.0))) (let ((.def_50 (or .def_49 .def_7 .def_1))) (let ((.def_51 (<= fluent_counter_t2@2 31.0))) (let ((.def_52 (<= 0.0 fluent_counter_t2@2))) (let ((.def_53 (and act_make_treatment@2 true .def_1))) (let ((.def_54 (= fluent_counter_t2@1 fluent_counter_t2@2))) (let ((.def_55 (not .def_54))) (let ((.def_56 (=> .def_55 .def_53))) (let ((.def_57 (and act_make_treatment@2 true .def_7))) (let ((.def_58 (= fluent_counter_t1@1 fluent_counter_t1@2))) (let ((.def_59 (not .def_58))) (let ((.def_60 (=> .def_59 .def_57))) (let ((.def_61 (and act_make_treatment@2 true .def_49))) (let ((.def_62 (= fluent_counter_t0@1 fluent_counter_t0@2))) (let ((.def_63 (not .def_62))) (let ((.def_64 (=> .def_63 .def_61))) (let ((.def_65 (+ t@2 10.0))) (let ((.def_66 (= t@2 .def_65))) (let ((.def_67 (and act_make_treatment@2 true .def_66 .def_48 .def_42))) (let ((.def_68 (= parameter_make_treatment_next@1 3.0))) (let ((.def_69 (= parameter_make_treatment_i@1 0.0))) (let ((.def_70 (+ t@1 10.0))) (let ((.def_71 (= t@2 .def_70))) (let ((.def_72 (and act_make_treatment@1 true .def_71 .def_69 .def_68))) (let ((.def_73 (and .def_72 .def_67))) (let ((.def_74 (not .def_73))) (let ((.def_75 (or .def_72 .def_67))) (let ((.def_76 (= fluent_ready_i0_t2@1 fluent_ready_i0_t2@2))) (let ((.def_77 (not .def_76))) (let ((.def_78 (=> .def_77 .def_75))) (let ((.def_79 (and act_make_treatment@2 true .def_66 .def_48 .def_43))) (let ((.def_80 (= parameter_make_treatment_next@1 2.0))) (let ((.def_81 (and act_make_treatment@1 true .def_71 .def_69 .def_80))) (let ((.def_82 (and .def_81 .def_79))) (let ((.def_83 (not .def_82))) (let ((.def_84 (or .def_81 .def_79))) (let ((.def_85 (= fluent_ready_i0_t1@1 fluent_ready_i0_t1@2))) (let ((.def_86 (not .def_85))) (let ((.def_87 (=> .def_86 .def_84))) (let ((.def_88 (and act_make_treatment@2 true .def_66 .def_48 .def_44))) (let ((.def_89 (= parameter_make_treatment_next@1 1.0))) (let ((.def_90 (and act_make_treatment@1 true .def_71 .def_69 .def_89))) (let ((.def_91 (and .def_90 .def_88))) (let ((.def_92 (not .def_91))) (let ((.def_93 (or .def_90 .def_88))) (let ((.def_94 (= fluent_ready_i0_t0@1 fluent_ready_i0_t0@2))) (let ((.def_95 (not .def_94))) (let ((.def_96 (=> .def_95 .def_93))) (let ((.def_97 (and act_make_treatment@2 true .def_48 .def_1))) (let ((.def_98 (= fluent_started_i0_t2@1 fluent_started_i0_t2@2))) (let ((.def_99 (not .def_98))) (let ((.def_100 (=> .def_99 .def_97))) (let ((.def_101 (and act_make_treatment@2 true .def_48 .def_7))) (let ((.def_102 (= fluent_started_i0_t1@1 fluent_started_i0_t1@2))) (let ((.def_103 (not .def_102))) (let ((.def_104 (=> .def_103 .def_101))) (let ((.def_105 (and act_make_treatment@2 true .def_48 .def_49))) (let ((.def_106 (= fluent_started_i0_t0@1 fluent_started_i0_t0@2))) (let ((.def_107 (not .def_106))) (let ((.def_108 (=> .def_107 .def_105))) (let ((.def_109 (+ t@2 4.0))) (let ((.def_110 (= t@2 .def_109))) (let ((.def_111 (and act_make_treatment@2 true .def_110 .def_48 .def_1))) (let ((.def_112 (+ t@1 4.0))) (let ((.def_113 (= t@2 .def_112))) (let ((.def_114 (and act_make_treatment@1 true .def_113 .def_69 .def_21))) (let ((.def_115 (and .def_114 .def_111))) (let ((.def_116 (not .def_115))) (let ((.def_117 (or .def_114 .def_111))) (let ((.def_118 (= fluent_treated_i0_t2@1 fluent_treated_i0_t2@2))) (let ((.def_119 (not .def_118))) (let ((.def_120 (=> .def_119 .def_117))) (let ((.def_121 (and act_make_treatment@2 true .def_110 .def_48 .def_7))) (let ((.def_122 (and act_make_treatment@1 true .def_113 .def_69 .def_27))) (let ((.def_123 (and .def_122 .def_121))) (let ((.def_124 (not .def_123))) (let ((.def_125 (or .def_122 .def_121))) (let ((.def_126 (= fluent_treated_i0_t1@1 fluent_treated_i0_t1@2))) (let ((.def_127 (not .def_126))) (let ((.def_128 (=> .def_127 .def_125))) (let ((.def_129 (and act_make_treatment@2 true .def_110 .def_48 .def_49))) (let ((.def_130 (= parameter_make_treatment_t@1 1.0))) (let ((.def_131 (and act_make_treatment@1 true .def_113 .def_69 .def_130))) (let ((.def_132 (and .def_131 .def_129))) (let ((.def_133 (not .def_132))) (let ((.def_134 (or .def_131 .def_129))) (let ((.def_135 (= fluent_treated_i0_t0@1 fluent_treated_i0_t0@2))) (let ((.def_136 (not .def_135))) (let ((.def_137 (=> .def_136 .def_134))) (let ((.def_138 (and act_make_treatment@2 true .def_110))) (let ((.def_139 (and act_make_treatment@1 true .def_113))) (let ((.def_140 (and .def_139 .def_138))) (let ((.def_141 (not .def_140))) (let ((.def_142 (and act_make_treatment@2 true))) (let ((.def_143 (and .def_142 .def_138))) (let ((.def_144 (not .def_143))) (let ((.def_145 (and .def_142 .def_139))) (let ((.def_146 (not .def_145))) (let ((.def_147 (or .def_142 .def_139 .def_138))) (let ((.def_148 (= fluent_busy_@1 fluent_busy_@2))) (let ((.def_149 (not .def_148))) (let ((.def_150 (=> .def_149 .def_147))) (let ((.def_151 (+ t@1 dur_make_treatment@1))) (let ((.def_152 (<= .def_151 t@2))) (let ((.def_153 (= parameter_make_treatment_next@2 parameter_make_treatment_next@1))) (let ((.def_154 (= parameter_make_treatment_t@2 parameter_make_treatment_t@1))) (let ((.def_155 (= parameter_make_treatment_i@2 parameter_make_treatment_i@1))) (let ((.def_156 (and .def_155 .def_154 .def_153))) (let ((.def_157 (and act_make_treatment@2 act_make_treatment@1 .def_156))) (let ((.def_158 (=> .def_157 .def_152))) (let ((.def_159 (+ t@2 dur_make_treatment@2))) (let ((.def_160 (= .def_159 .def_151))) (let ((.def_161 (and act_make_treatment@2 act_make_treatment@1 .def_160))) (let ((.def_162 (not .def_161))) (let ((.def_163 (= .def_159 t@1))) (let ((.def_164 (and act_make_treatment@2 act_make_treatment@1 .def_163))) (let ((.def_165 (not .def_164))) (let ((.def_166 (= .def_109 t@1))) (let ((.def_167 (and act_make_treatment@2 act_make_treatment@1 .def_166))) (let ((.def_168 (not .def_167))) (let ((.def_169 (= .def_65 .def_70))) (let ((.def_170 (and act_make_treatment@2 act_make_treatment@1 .def_169))) (let ((.def_171 (not .def_170))) (let ((.def_172 (= .def_109 .def_112))) (let ((.def_173 (and act_make_treatment@2 act_make_treatment@1 .def_172))) (let ((.def_174 (not .def_173))) (let ((.def_175 (= t@2 t@1))) (let ((.def_176 (and act_make_treatment@2 act_make_treatment@1 .def_175))) (let ((.def_177 (not .def_176))) (let ((.def_178 (and act_make_treatment@2 act_make_treatment@1 .def_71))) (let ((.def_179 (not .def_178))) (let ((.def_180 (< t@1 t@2))) (let ((.def_181 (and .def_48 .def_43))) (let ((.def_182 (or .def_181 fluent_ready_i0_t0@2))) (let ((.def_183 (not .def_181))) (let ((.def_184 (or .def_183 fluent_ready_i0_t1@2))) (let ((.def_185 (and .def_184 .def_182))) (let ((.def_186 (and .def_48 .def_42))) (let ((.def_187 (or .def_186 .def_185))) (let ((.def_188 (not .def_186))) (let ((.def_189 (or .def_188 fluent_ready_i0_t2@2))) (let ((.def_190 (and .def_189 .def_187))) (let ((.def_191 (= .def_190 true))) (let ((.def_192 (=> true .def_191))) (let ((.def_193 (and .def_66 .def_192))) (let ((.def_194 (= fluent_busy_@2 false))) (let ((.def_195 (=> true .def_194))) (let ((.def_196 (and .def_48 .def_7))) (let ((.def_197 (or .def_196 fluent_treated_i0_t0@2))) (let ((.def_198 (not .def_196))) (let ((.def_199 (or .def_198 fluent_treated_i0_t1@2))) (let ((.def_200 (and .def_199 .def_197))) (let ((.def_201 (and .def_48 .def_1))) (let ((.def_202 (or .def_201 .def_200))) (let ((.def_203 (not .def_201))) (let ((.def_204 (or .def_203 fluent_treated_i0_t2@2))) (let ((.def_205 (and .def_204 .def_202))) (let ((.def_206 (= .def_205 true))) (let ((.def_207 (=> true .def_206))) (let ((.def_208 (and .def_110 .def_207 .def_195))) (let ((.def_209 (or .def_196 fluent_started_i0_t0@2))) (let ((.def_210 (or .def_198 fluent_started_i0_t1@2))) (let ((.def_211 (and .def_210 .def_209))) (let ((.def_212 (or .def_201 .def_211))) (let ((.def_213 (or .def_203 fluent_started_i0_t2@2))) (let ((.def_214 (and .def_213 .def_212))) (let ((.def_215 (= .def_214 true))) (let ((.def_216 (=> true .def_215))) (let ((.def_217 (= fluent_busy_@2 true))) (let ((.def_218 (=> true .def_217))) (let ((.def_219 (+ __z3_2 1.0))) (let ((.def_220 (= __z3_3 .def_219))) (let ((.def_221 (=> true .def_220))) (let ((.def_222 (= t@2 t@2))) (let ((.def_223 (and .def_222 .def_221 .def_218 .def_216))) (let ((.def_224 (or .def_181 fluent_started_i0_t0@1))) (let ((.def_225 (or .def_183 fluent_started_i0_t1@1))) (let ((.def_226 (and .def_225 .def_224))) (let ((.def_227 (or .def_186 .def_226))) (let ((.def_228 (or .def_188 fluent_started_i0_t2@1))) (let ((.def_229 (and .def_228 .def_227))) (let ((.def_230 (<= .def_159 t@2))) (let ((.def_231 (< t@1 .def_159))) (let ((.def_232 (and .def_231 .def_230))) (let ((.def_233 (=> .def_232 .def_229))) (let ((.def_234 (or .def_196 fluent_ready_i0_t0@1))) (let ((.def_235 (or .def_198 fluent_ready_i0_t1@1))) (let ((.def_236 (and .def_235 .def_234))) (let ((.def_237 (or .def_201 .def_236))) (let ((.def_238 (or .def_203 fluent_ready_i0_t2@1))) (let ((.def_239 (and .def_238 .def_237))) (let ((.def_240 (or .def_196 fluent_started_i0_t0@1))) (let ((.def_241 (or .def_198 fluent_started_i0_t1@1))) (let ((.def_242 (and .def_241 .def_240))) (let ((.def_243 (or .def_201 .def_242))) (let ((.def_244 (or .def_203 fluent_started_i0_t2@1))) (let ((.def_245 (and .def_244 .def_243))) (let ((.def_246 (not .def_245))) (let ((.def_247 (or .def_196 fluent_treated_i0_t0@1))) (let ((.def_248 (or .def_198 fluent_treated_i0_t1@1))) (let ((.def_249 (and .def_248 .def_247))) (let ((.def_250 (or .def_201 .def_249))) (let ((.def_251 (or .def_203 fluent_treated_i0_t2@1))) (let ((.def_252 (and .def_251 .def_250))) (let ((.def_253 (not .def_252))) (let ((.def_254 (not fluent_busy_@1))) (let ((.def_255 (and .def_7 .def_44))) (let ((.def_256 (or .def_255 false))) (let ((.def_257 (not .def_255))) (let ((.def_258 (or .def_257 false))) (let ((.def_259 (and .def_258 .def_256))) (let ((.def_260 (and .def_1 .def_44))) (let ((.def_261 (or .def_260 .def_259))) (let ((.def_262 (not .def_260))) (let ((.def_263 (or .def_262 false))) (let ((.def_264 (and .def_263 .def_261))) (let ((.def_265 (and .def_49 .def_43))) (let ((.def_266 (or .def_265 .def_264))) (let ((.def_267 (not .def_265))) (let ((.def_268 (or .def_267 true))) (let ((.def_269 (and .def_268 .def_266))) (let ((.def_270 (and .def_7 .def_43))) (let ((.def_271 (or .def_270 .def_269))) (let ((.def_272 (not .def_270))) (let ((.def_273 (or .def_272 false))) (let ((.def_274 (and .def_273 .def_271))) (let ((.def_275 (and .def_1 .def_43))) (let ((.def_276 (or .def_275 .def_274))) (let ((.def_277 (not .def_275))) (let ((.def_278 (or .def_277 false))) (let ((.def_279 (and .def_278 .def_276))) (let ((.def_280 (and .def_49 .def_42))) (let ((.def_281 (or .def_280 .def_279))) (let ((.def_282 (not .def_280))) (let ((.def_283 (or .def_282 false))) (let ((.def_284 (and .def_283 .def_281))) (let ((.def_285 (and .def_7 .def_42))) (let ((.def_286 (or .def_285 .def_284))) (let ((.def_287 (not .def_285))) (let ((.def_288 (or .def_287 true))) (let ((.def_289 (and .def_288 .def_286))) (let ((.def_290 (and .def_1 .def_42))) (let ((.def_291 (or .def_290 .def_289))) (let ((.def_292 (not .def_290))) (let ((.def_293 (or .def_292 false))) (let ((.def_294 (and .def_293 .def_291))) (let ((.def_295 (= 0.0 __z3_2))) (let ((.def_296 (and .def_295 .def_294 .def_254 .def_253 .def_246 .def_239))) (let ((.def_297 (<= t@2 t@2))) (let ((.def_298 (and .def_180 .def_297))) (let ((.def_299 (=> .def_298 .def_296))) (let ((.def_300 (<= dur_make_treatment@2 15.0))) (let ((.def_301 (<= 15.0 dur_make_treatment@2))) (let ((.def_302 (and .def_301 .def_300))) (let ((.def_303 (and .def_302 .def_230 .def_299 .def_233 .def_223 .def_208 .def_193))) (let ((.def_304 (=> act_make_treatment@2 .def_303))) (let ((.def_305 (<= fluent_counter_t0@1 31.0))) (let ((.def_306 (<= 0.0 fluent_counter_t0@1))) (let ((.def_307 (or .def_130 .def_27 .def_21))) (let ((.def_308 (or .def_89 .def_80 .def_68))) (let ((.def_309 (<= 0.0 fluent_counter_t1@1))) (let ((.def_310 (<= fluent_counter_t2@1 31.0))) (let ((.def_311 (<= 0.0 fluent_counter_t2@1))) (let ((.def_312 (<= fluent_counter_t1@1 31.0))) (let ((.def_313 (and act_make_treatment@1 true .def_21))) (let ((.def_314 (= fluent_counter_t2@0 fluent_counter_t2@1))) (let ((.def_315 (not .def_314))) (let ((.def_316 (=> .def_315 .def_313))) (let ((.def_317 (and act_make_treatment@1 true .def_27))) (let ((.def_318 (= fluent_counter_t1@0 fluent_counter_t1@1))) (let ((.def_319 (not .def_318))) (let ((.def_320 (=> .def_319 .def_317))) (let ((.def_321 (and act_make_treatment@1 true .def_130))) (let ((.def_322 (= fluent_counter_t0@0 fluent_counter_t0@1))) (let ((.def_323 (not .def_322))) (let ((.def_324 (=> .def_323 .def_321))) (let ((.def_325 (= t@1 .def_70))) (let ((.def_326 (and act_make_treatment@1 true .def_325 .def_69 .def_68))) (let ((.def_327 (= fluent_ready_i0_t2@0 fluent_ready_i0_t2@1))) (let ((.def_328 (not .def_327))) (let ((.def_329 (=> .def_328 .def_326))) (let ((.def_330 (and act_make_treatment@1 true .def_325 .def_69 .def_80))) (let ((.def_331 (= fluent_ready_i0_t1@0 fluent_ready_i0_t1@1))) (let ((.def_332 (not .def_331))) (let ((.def_333 (=> .def_332 .def_330))) (let ((.def_334 (and act_make_treatment@1 true .def_325 .def_69 .def_89))) (let ((.def_335 (= fluent_ready_i0_t0@0 fluent_ready_i0_t0@1))) (let ((.def_336 (not .def_335))) (let ((.def_337 (=> .def_336 .def_334))) (let ((.def_338 (and act_make_treatment@1 true .def_69 .def_21))) (let ((.def_339 (= fluent_started_i0_t2@0 fluent_started_i0_t2@1))) (let ((.def_340 (not .def_339))) (let ((.def_341 (=> .def_340 .def_338))) (let ((.def_342 (and act_make_treatment@1 true .def_69 .def_27))) (let ((.def_343 (= fluent_started_i0_t1@0 fluent_started_i0_t1@1))) (let ((.def_344 (not .def_343))) (let ((.def_345 (=> .def_344 .def_342))) (let ((.def_346 (and act_make_treatment@1 true .def_69 .def_130))) (let ((.def_347 (= fluent_started_i0_t0@0 fluent_started_i0_t0@1))) (let ((.def_348 (not .def_347))) (let ((.def_349 (=> .def_348 .def_346))) (let ((.def_350 (= t@1 .def_112))) (let ((.def_351 (and act_make_treatment@1 true .def_350 .def_69 .def_21))) (let ((.def_352 (= fluent_treated_i0_t2@0 fluent_treated_i0_t2@1))) (let ((.def_353 (not .def_352))) (let ((.def_354 (=> .def_353 .def_351))) (let ((.def_355 (and act_make_treatment@1 true .def_350 .def_69 .def_27))) (let ((.def_356 (= fluent_treated_i0_t1@0 fluent_treated_i0_t1@1))) (let ((.def_357 (not .def_356))) (let ((.def_358 (=> .def_357 .def_355))) (let ((.def_359 (and act_make_treatment@1 true .def_350 .def_69 .def_130))) (let ((.def_360 (= fluent_treated_i0_t0@0 fluent_treated_i0_t0@1))) (let ((.def_361 (not .def_360))) (let ((.def_362 (=> .def_361 .def_359))) (let ((.def_363 (and act_make_treatment@1 true .def_350))) (let ((.def_364 (and act_make_treatment@1 true))) (let ((.def_365 (and .def_364 .def_363))) (let ((.def_366 (not .def_365))) (let ((.def_367 (or .def_364 .def_363))) (let ((.def_368 (= fluent_busy_@0 fluent_busy_@1))) (let ((.def_369 (not .def_368))) (let ((.def_370 (=> .def_369 .def_367))) (let ((.def_371 (= .def_151 .def_159))) (let ((.def_372 (and act_make_treatment@1 act_make_treatment@2 .def_371))) (let ((.def_373 (not .def_372))) (let ((.def_374 (= .def_151 t@2))) (let ((.def_375 (and act_make_treatment@1 act_make_treatment@2 .def_374))) (let ((.def_376 (not .def_375))) (let ((.def_377 (= .def_112 t@2))) (let ((.def_378 (and act_make_treatment@1 act_make_treatment@2 .def_377))) (let ((.def_379 (not .def_378))) (let ((.def_380 (= .def_70 .def_65))) (let ((.def_381 (and act_make_treatment@1 act_make_treatment@2 .def_380))) (let ((.def_382 (not .def_381))) (let ((.def_383 (= .def_112 .def_109))) (let ((.def_384 (and act_make_treatment@1 act_make_treatment@2 .def_383))) (let ((.def_385 (not .def_384))) (let ((.def_386 (= t@1 t@2))) (let ((.def_387 (and act_make_treatment@1 act_make_treatment@2 .def_386))) (let ((.def_388 (not .def_387))) (let ((.def_389 (= t@1 .def_65))) (let ((.def_390 (and act_make_treatment@1 act_make_treatment@2 .def_389))) (let ((.def_391 (not .def_390))) (let ((.def_392 (<= 0.0 t@1))) (let ((.def_393 (and .def_69 .def_80))) (let ((.def_394 (or .def_393 fluent_ready_i0_t0@2))) (let ((.def_395 (not .def_393))) (let ((.def_396 (or .def_395 fluent_ready_i0_t1@2))) (let ((.def_397 (and .def_396 .def_394))) (let ((.def_398 (and .def_69 .def_68))) (let ((.def_399 (or .def_398 .def_397))) (let ((.def_400 (not .def_398))) (let ((.def_401 (or .def_400 fluent_ready_i0_t2@2))) (let ((.def_402 (and .def_401 .def_399))) (let ((.def_403 (= .def_402 true))) (let ((.def_404 (=> true .def_403))) (let ((.def_405 (and .def_71 .def_404))) (let ((.def_406 (or .def_393 fluent_ready_i0_t0@1))) (let ((.def_407 (or .def_395 fluent_ready_i0_t1@1))) (let ((.def_408 (and .def_407 .def_406))) (let ((.def_409 (or .def_398 .def_408))) (let ((.def_410 (or .def_400 fluent_ready_i0_t2@1))) (let ((.def_411 (and .def_410 .def_409))) (let ((.def_412 (= .def_411 true))) (let ((.def_413 (=> true .def_412))) (let ((.def_414 (and .def_325 .def_413))) (let ((.def_415 (or .def_414 .def_405))) (let ((.def_416 (and .def_69 .def_27))) (let ((.def_417 (or .def_416 fluent_treated_i0_t0@2))) (let ((.def_418 (not .def_416))) (let ((.def_419 (or .def_418 fluent_treated_i0_t1@2))) (let ((.def_420 (and .def_419 .def_417))) (let ((.def_421 (and .def_69 .def_21))) (let ((.def_422 (or .def_421 .def_420))) (let ((.def_423 (not .def_421))) (let ((.def_424 (or .def_423 fluent_treated_i0_t2@2))) (let ((.def_425 (and .def_424 .def_422))) (let ((.def_426 (= .def_425 true))) (let ((.def_427 (=> true .def_426))) (let ((.def_428 (and .def_113 .def_427 .def_195))) (let ((.def_429 (= fluent_busy_@1 false))) (let ((.def_430 (=> true .def_429))) (let ((.def_431 (or .def_416 fluent_treated_i0_t0@1))) (let ((.def_432 (or .def_418 fluent_treated_i0_t1@1))) (let ((.def_433 (and .def_432 .def_431))) (let ((.def_434 (or .def_421 .def_433))) (let ((.def_435 (or .def_423 fluent_treated_i0_t2@1))) (let ((.def_436 (and .def_435 .def_434))) (let ((.def_437 (= .def_436 true))) (let ((.def_438 (=> true .def_437))) (let ((.def_439 (and .def_350 .def_438 .def_430))) (let ((.def_440 (or .def_439 .def_428))) (let ((.def_441 (or .def_416 fluent_started_i0_t0@1))) (let ((.def_442 (or .def_418 fluent_started_i0_t1@1))) (let ((.def_443 (and .def_442 .def_441))) (let ((.def_444 (or .def_421 .def_443))) (let ((.def_445 (or .def_423 fluent_started_i0_t2@1))) (let ((.def_446 (and .def_445 .def_444))) (let ((.def_447 (= .def_446 true))) (let ((.def_448 (=> true .def_447))) (let ((.def_449 (= fluent_busy_@1 true))) (let ((.def_450 (=> true .def_449))) (let ((.def_451 (+ __z3_0 1.0))) (let ((.def_452 (= __z3_1 .def_451))) (let ((.def_453 (=> true .def_452))) (let ((.def_454 (= t@1 t@1))) (let ((.def_455 (and .def_454 .def_453 .def_450 .def_448))) (let ((.def_456 (or .def_393 fluent_started_i0_t0@1))) (let ((.def_457 (or .def_395 fluent_started_i0_t1@1))) (let ((.def_458 (and .def_457 .def_456))) (let ((.def_459 (or .def_398 .def_458))) (let ((.def_460 (or .def_400 fluent_started_i0_t2@1))) (let ((.def_461 (and .def_460 .def_459))) (let ((.def_462 (< t@1 .def_151))) (let ((.def_463 (and .def_462 .def_152))) (let ((.def_464 (=> .def_463 .def_461))) (let ((.def_465 (or .def_393 fluent_started_i0_t0@0))) (let ((.def_466 (or .def_395 fluent_started_i0_t1@0))) (let ((.def_467 (and .def_466 .def_465))) (let ((.def_468 (or .def_398 .def_467))) (let ((.def_469 (or .def_400 fluent_started_i0_t2@0))) (let ((.def_470 (and .def_469 .def_468))) (let ((.def_471 (<= .def_151 t@1))) (let ((.def_472 (< (- 1.0) .def_151))) (let ((.def_473 (and .def_472 .def_471))) (let ((.def_474 (=> .def_473 .def_470))) (let ((.def_475 (or .def_416 fluent_ready_i0_t0@1))) (let ((.def_476 (or .def_418 fluent_ready_i0_t1@1))) (let ((.def_477 (and .def_476 .def_475))) (let ((.def_478 (or .def_421 .def_477))) (let ((.def_479 (or .def_423 fluent_ready_i0_t2@1))) (let ((.def_480 (and .def_479 .def_478))) (let ((.def_481 (not .def_446))) (let ((.def_482 (not .def_436))) (let ((.def_483 (and .def_27 .def_89))) (let ((.def_484 (or .def_483 false))) (let ((.def_485 (not .def_483))) (let ((.def_486 (or .def_485 false))) (let ((.def_487 (and .def_486 .def_484))) (let ((.def_488 (and .def_21 .def_89))) (let ((.def_489 (or .def_488 .def_487))) (let ((.def_490 (not .def_488))) (let ((.def_491 (or .def_490 false))) (let ((.def_492 (and .def_491 .def_489))) (let ((.def_493 (and .def_130 .def_80))) (let ((.def_494 (or .def_493 .def_492))) (let ((.def_495 (not .def_493))) (let ((.def_496 (or .def_495 true))) (let ((.def_497 (and .def_496 .def_494))) (let ((.def_498 (and .def_27 .def_80))) (let ((.def_499 (or .def_498 .def_497))) (let ((.def_500 (not .def_498))) (let ((.def_501 (or .def_500 false))) (let ((.def_502 (and .def_501 .def_499))) (let ((.def_503 (and .def_21 .def_80))) (let ((.def_504 (or .def_503 .def_502))) (let ((.def_505 (not .def_503))) (let ((.def_506 (or .def_505 false))) (let ((.def_507 (and .def_506 .def_504))) (let ((.def_508 (and .def_130 .def_68))) (let ((.def_509 (or .def_508 .def_507))) (let ((.def_510 (not .def_508))) (let ((.def_511 (or .def_510 false))) (let ((.def_512 (and .def_511 .def_509))) (let ((.def_513 (and .def_27 .def_68))) (let ((.def_514 (or .def_513 .def_512))) (let ((.def_515 (not .def_513))) (let ((.def_516 (or .def_515 true))) (let ((.def_517 (and .def_516 .def_514))) (let ((.def_518 (and .def_21 .def_68))) (let ((.def_519 (or .def_518 .def_517))) (let ((.def_520 (not .def_518))) (let ((.def_521 (or .def_520 false))) (let ((.def_522 (and .def_521 .def_519))) (let ((.def_523 (= 0.0 __z3_1))) (let ((.def_524 (and .def_523 .def_522 .def_254 .def_482 .def_481 .def_480))) (let ((.def_525 (<= t@1 t@2))) (let ((.def_526 (< t@1 t@1))) (let ((.def_527 (and .def_526 .def_525))) (let ((.def_528 (=> .def_527 .def_524))) (let ((.def_529 (or .def_416 fluent_ready_i0_t0@0))) (let ((.def_530 (or .def_418 fluent_ready_i0_t1@0))) (let ((.def_531 (and .def_530 .def_529))) (let ((.def_532 (or .def_421 .def_531))) (let ((.def_533 (or .def_423 fluent_ready_i0_t2@0))) (let ((.def_534 (and .def_533 .def_532))) (let ((.def_535 (or .def_416 fluent_started_i0_t0@0))) (let ((.def_536 (or .def_418 fluent_started_i0_t1@0))) (let ((.def_537 (and .def_536 .def_535))) (let ((.def_538 (or .def_421 .def_537))) (let ((.def_539 (or .def_423 fluent_started_i0_t2@0))) (let ((.def_540 (and .def_539 .def_538))) (let ((.def_541 (not .def_540))) (let ((.def_542 (or .def_416 fluent_treated_i0_t0@0))) (let ((.def_543 (or .def_418 fluent_treated_i0_t1@0))) (let ((.def_544 (and .def_543 .def_542))) (let ((.def_545 (or .def_421 .def_544))) (let ((.def_546 (or .def_423 fluent_treated_i0_t2@0))) (let ((.def_547 (and .def_546 .def_545))) (let ((.def_548 (not .def_547))) (let ((.def_549 (not fluent_busy_@0))) (let ((.def_550 (= 0.0 __z3_0))) (let ((.def_551 (and .def_550 .def_522 .def_549 .def_548 .def_541 .def_534))) (let ((.def_552 (<= t@1 t@1))) (let ((.def_553 (< (- 1.0) t@1))) (let ((.def_554 (and .def_553 .def_552))) (let ((.def_555 (=> .def_554 .def_551))) (let ((.def_556 (<= dur_make_treatment@1 15.0))) (let ((.def_557 (<= 15.0 dur_make_treatment@1))) (let ((.def_558 (and .def_557 .def_556))) (let ((.def_559 (and .def_558 .def_152 .def_555 .def_528 .def_474 .def_464 .def_455 .def_440 .def_415))) (let ((.def_560 (=> act_make_treatment@1 .def_559))) (let ((.def_561 (<= 0.0 fluent_counter_t0@0))) (let ((.def_562 (<= fluent_counter_t2@0 31.0))) (let ((.def_563 (<= 0.0 fluent_counter_t2@0))) (let ((.def_564 (<= fluent_counter_t1@0 31.0))) (let ((.def_565 (<= 0.0 fluent_counter_t1@0))) (let ((.def_566 (<= fluent_counter_t0@0 31.0))) (let ((.def_567 (= fluent_counter_t2@0 0.0))) (let ((.def_568 (= fluent_counter_t1@0 0.0))) (let ((.def_569 (= fluent_counter_t0@0 0.0))) (let ((.def_570 (= false false))) (let ((.def_571 (= fluent_ready_i0_t2@0 false))) (let ((.def_572 (= fluent_ready_i0_t1@0 false))) (let ((.def_573 (= fluent_started_i0_t1@0 false))) (let ((.def_574 (= fluent_started_i0_t0@0 false))) (let ((.def_575 (= fluent_treated_i0_t2@0 false))) (let ((.def_576 (= fluent_treated_i0_t1@0 false))) (let ((.def_577 (= fluent_treated_i0_t0@0 false))) (let ((.def_578 (= fluent_busy_@0 false))) (let ((.def_579 (= fluent_ready_i0_t0@0 true))) (let ((.def_580 (= fluent_started_i0_t2@0 true))) (let ((.def_581 (= true true))) (let ((.def_582 (= 0.0 0.0))) (let ((.def_583 (and .def_582 .def_581 .def_581 .def_580 .def_579 .def_578 .def_577 .def_576 .def_575 .def_574 .def_573 .def_572 .def_571 .def_570 .def_570 .def_570 .def_570 .def_570 .def_570 .def_570 .def_569 .def_568 .def_567 .def_566 .def_565 .def_564 .def_563 .def_562 .def_561 .def_560 .def_392 .def_391 .def_388 .def_385 .def_382 .def_379 .def_376 .def_373 .def_370 .def_366 .def_362 .def_358 .def_354 .def_349 .def_345 .def_341 .def_337 .def_333 .def_329 .def_324 .def_320 .def_316 .def_312 .def_311 .def_310 .def_309 .def_308 .def_307 .def_306 .def_305 .def_69 .def_304 .def_180 .def_179 .def_177 .def_174 .def_171 .def_168 .def_165 .def_162 .def_158 .def_150 .def_146 .def_144 .def_141 .def_137 .def_133 .def_128 .def_124 .def_120 .def_116 .def_108 .def_104 .def_100 .def_96 .def_92 .def_87 .def_83 .def_78 .def_74 .def_64 .def_60 .def_56 .def_52 .def_51 .def_50 .def_48 .def_47 .def_46 .def_45 .def_41 .def_40 .def_39 .def_37 .def_35 .def_33 .def_31 .def_28 .def_25 .def_22 .def_19 .def_17 .def_15 .def_13 .def_11 .def_8 .def_5 .def_2))) .def_583)))))))))))))))))))))))))))))))))))))))))))))))))))))))))))))))))))))))))))))))))))))))))))))))))))))))))))))))))))))))))))))))))))))))))))))))))))))))))))))))))))))))))))))))))))))))))))))))))))))))))))))))))))))))))))))))))))))))))))))))))))))))))))))))))))))))))))))))))))))))))))))))))))))))))))))))))))))))))))))))))))))))))))))))))))))))))))))))))))))))))))))))))))))))))))))))))))))))))))))))))))))))))))))))))))))))))))))))))))))))))))))))))))))))))))))))))))))))))))))))))))))))))))))))))))))))))))))))))))))))))))))))))))))))))))))))))))))))))))))))))))))))))))))))))))))))))
(check-sat)
